p cnf 229 556
c weights 1.0 1.0 2.718281828459045 0.36787944117144233 2.718281828459045 0.36787944117144233 2.718281828459045 0.36787944117144233 2.718281828459045 0.36787944117144233 1.0 1.0 2.718281828459045 0.36787944117144233 2.718281828459045 0.36787944117144233 2.718281828459045 0.36787944117144233 2.718281828459045 0.36787944117144233 1.0 1.0 2.718281828459045 0.36787944117144233 2.718281828459045 0.36787944117144233 2.718281828459045 0.36787944117144233 1.0 1.0 2.718281828459045 0.36787944117144233 2.718281828459045 0.36787944117144233 2.718281828459045 0.36787944117144233 2.718281828459045 0.36787944117144233 1.0 1.0 2.718281828459045 0.36787944117144233 2.718281828459045 0.36787944117144233 2.718281828459045 0.36787944117144233 2.718281828459045 0.36787944117144233 1.0 1.0 2.718281828459045 0.36787944117144233 2.718281828459045 0.36787944117144233 2.718281828459045 0.36787944117144233 1.0 1.0 2.718281828459045 0.36787944117144233 1.0 1.0 2.718281828459045 0.36787944117144233 2.718281828459045 0.36787944117144233 1.0 1.0 2.718281828459045 0.36787944117144233 2.718281828459045 0.36787944117144233 2.718281828459045 0.36787944117144233 1.0 1.0 2.718281828459045 0.36787944117144233 2.718281828459045 0.36787944117144233 1.0 1.0 2.718281828459045 0.36787944117144233 2.718281828459045 0.36787944117144233 2.718281828459045 0.36787944117144233 2.718281828459045 0.36787944117144233 1.0 1.0 2.718281828459045 0.36787944117144233 2.718281828459045 0.36787944117144233 2.718281828459045 0.36787944117144233 1.0 1.0 2.718281828459045 0.36787944117144233 2.718281828459045 0.36787944117144233 2.718281828459045 0.36787944117144233 2.718281828459045 0.36787944117144233 1.0 1.0 2.718281828459045 0.36787944117144233 2.718281828459045 0.36787944117144233 1.0 1.0 2.718281828459045 0.36787944117144233 2.718281828459045 0.36787944117144233 1.0 1.0 1.0 1.0 2.718281828459045 0.36787944117144233 2.718281828459045 0.36787944117144233 2.718281828459045 0.36787944117144233 2.718281828459045 0.36787944117144233 2.718281828459045 0.36787944117144233 1.0 1.0 2.718281828459045 0.36787944117144233 2.718281828459045 0.36787944117144233 2.718281828459045 0.36787944117144233 2.718281828459045 0.36787944117144233 1.0 1.0 2.718281828459045 0.36787944117144233 1.0 1.0 2.718281828459045 0.36787944117144233 2.718281828459045 0.36787944117144233 2.718281828459045 0.36787944117144233 2.718281828459045 0.36787944117144233 1.0 1.0 2.718281828459045 0.36787944117144233 1.0 1.0 2.718281828459045 0.36787944117144233 1.0 1.0 2.718281828459045 0.36787944117144233 2.718281828459045 0.36787944117144233 1.0 1.0 2.718281828459045 0.36787944117144233 2.718281828459045 0.36787944117144233 1.0 1.0 2.718281828459045 0.36787944117144233 2.718281828459045 0.36787944117144233 2.718281828459045 0.36787944117144233 2.718281828459045 0.36787944117144233 1.0 1.0 2.718281828459045 0.36787944117144233 2.718281828459045 0.36787944117144233 1.0 1.0 2.718281828459045 0.36787944117144233 2.718281828459045 0.36787944117144233 2.718281828459045 0.36787944117144233 2.718281828459045 0.36787944117144233 1.0 1.0 1.0 1.0 2.718281828459045 0.36787944117144233 1.0 1.0 2.718281828459045 0.36787944117144233 1.0 1.0 1.0 1.0 2.718281828459045 0.36787944117144233 2.718281828459045 0.36787944117144233 2.718281828459045 0.36787944117144233 2.718281828459045 0.36787944117144233 1.0 1.0 2.718281828459045 0.36787944117144233 2.718281828459045 0.36787944117144233 2.718281828459045 0.36787944117144233 2.718281828459045 0.36787944117144233 2.718281828459045 0.36787944117144233 1.0 1.0 2.718281828459045 0.36787944117144233 2.718281828459045 0.36787944117144233 2.718281828459045 0.36787944117144233 1.0 1.0 2.718281828459045 0.36787944117144233 2.718281828459045 0.36787944117144233 1.0 1.0 2.718281828459045 0.36787944117144233 1.0 1.0 2.718281828459045 0.36787944117144233 1.0 1.0 2.718281828459045 0.36787944117144233 2.718281828459045 0.36787944117144233 2.718281828459045 0.36787944117144233 1.0 1.0 2.718281828459045 0.36787944117144233 2.718281828459045 0.36787944117144233 2.718281828459045 0.36787944117144233 1.0 1.0 2.718281828459045 0.36787944117144233 2.718281828459045 0.36787944117144233 2.718281828459045 0.36787944117144233 2.718281828459045 0.36787944117144233 1.0 1.0 2.718281828459045 0.36787944117144233 1.0 1.0 1.0 1.0 2.718281828459045 0.36787944117144233 2.718281828459045 0.36787944117144233 2.718281828459045 0.36787944117144233 2.718281828459045 0.36787944117144233 2.718281828459045 0.36787944117144233 1.0 1.0 2.718281828459045 0.36787944117144233 2.718281828459045 0.36787944117144233 1.0 1.0 2.718281828459045 0.36787944117144233 1.0 1.0 2.718281828459045 0.36787944117144233 2.718281828459045 0.36787944117144233 1.0 1.0 1.0 1.0 2.718281828459045 0.36787944117144233 2.718281828459045 0.36787944117144233 1.0 1.0 2.718281828459045 0.36787944117144233 1.0 1.0 2.718281828459045 0.36787944117144233 2.718281828459045 0.36787944117144233 1.0 1.0 1.0 1.0 1.0 1.0 2.718281828459045 0.36787944117144233 2.718281828459045 0.36787944117144233 2.718281828459045 0.36787944117144233 2.718281828459045 0.36787944117144233 1.0 1.0 2.718281828459045 0.36787944117144233 2.718281828459045 0.36787944117144233 1.0 1.0 1.0 1.0 2.718281828459045 0.36787944117144233 1.0 1.0 2.718281828459045 0.36787944117144233 1.0 1.0 2.718281828459045 0.36787944117144233 1.0 1.0 1.0 1.0 1.0 1.0 1.0 1.0 1.0 1.0 2.718281828459045 0.36787944117144233 1.0 1.0 2.718281828459045 0.36787944117144233 1.0 1.0 2.718281828459045 0.36787944117144233 1.0 1.0 2.718281828459045 0.36787944117144233 1.0 1.0 2.718281828459045 0.36787944117144233 1.0 1.0 1.0 1.0 1.0 1.0 2.718281828459045 0.36787944117144233 1.0 1.0 2.718281828459045 0.36787944117144233 1.0 1.0 2.718281828459045 0.36787944117144233 1.0 1.0 2.718281828459045 0.36787944117144233 1.0 1.0 2.718281828459045 0.36787944117144233 1.0 1.0 1.0 1.0 1.0 1.0 2.718281828459045 0.36787944117144233 1.0 1.0 1.0 1.0 1.0 1.0 1.0 1.0 1.0 1.0 1.0 1.0 1.0 1.0 1.0 1.0 1.0 1.0 1.0 1.0 1.0 1.0 1.0 1.0 1.0 1.0
2 1 75 0
2 -1 -75 0
-2 1 -75 0
-2 -1 75 0
3 1 80 0
3 -1 -80 0
-3 1 -80 0
-3 -1 80 0
4 1 114 0
4 -1 -114 0
-4 1 -114 0
-4 -1 114 0
5 1 193 0
5 -1 -193 0
-5 1 -193 0
-5 -1 193 0
7 6 153 0
7 -6 -153 0
-7 6 -153 0
-7 -6 153 0
8 6 158 0
8 -6 -158 0
-8 6 -158 0
-8 -6 158 0
9 6 172 0
9 -6 -172 0
-9 6 -172 0
-9 -6 172 0
10 6 187 0
10 -6 -187 0
-10 6 -187 0
-10 -6 187 0
12 11 41 0
12 -11 -41 0
-12 11 -41 0
-12 -11 41 0
13 11 104 0
13 -11 -104 0
-13 11 -104 0
-13 -11 104 0
14 11 161 0
14 -11 -161 0
-14 11 -161 0
-14 -11 161 0
16 15 156 0
16 -15 -156 0
-16 15 -156 0
-16 -15 156 0
17 15 215 0
17 -15 -215 0
-17 15 -215 0
-17 -15 215 0
18 15 222 0
18 -15 -222 0
-18 15 -222 0
-18 -15 222 0
19 15 224 0
19 -15 -224 0
-19 15 -224 0
-19 -15 224 0
21 20 80 0
21 -20 -80 0
-21 20 -80 0
-21 -20 80 0
22 20 188 0
22 -20 -188 0
-22 20 -188 0
-22 -20 188 0
23 20 195 0
23 -20 -195 0
-23 20 -195 0
-23 -20 195 0
24 20 228 0
24 -20 -228 0
-24 20 -228 0
-24 -20 228 0
26 25 165 0
26 -25 -165 0
-26 25 -165 0
-26 -25 165 0
27 25 187 0
27 -25 -187 0
-27 25 -187 0
-27 -25 187 0
28 25 223 0
28 -25 -223 0
-28 25 -223 0
-28 -25 223 0
30 29 190 0
30 -29 -190 0
-30 29 -190 0
-30 -29 190 0
32 31 106 0
32 -31 -106 0
-32 31 -106 0
-32 -31 106 0
33 31 227 0
33 -31 -227 0
-33 31 -227 0
-33 -31 227 0
35 34 98 0
35 -34 -98 0
-35 34 -98 0
-35 -34 98 0
36 34 161 0
36 -34 -161 0
-36 34 -161 0
-36 -34 161 0
37 34 207 0
37 -34 -207 0
-37 34 -207 0
-37 -34 207 0
39 38 109 0
39 -38 -109 0
-39 38 -109 0
-39 -38 109 0
40 38 218 0
40 -38 -218 0
-40 38 -218 0
-40 -38 218 0
42 41 139 0
42 -41 -139 0
-42 41 -139 0
-42 -41 139 0
43 41 193 0
43 -41 -193 0
-43 41 -193 0
-43 -41 193 0
44 41 221 0
44 -41 -221 0
-44 41 -221 0
-44 -41 221 0
45 41 223 0
45 -41 -223 0
-45 41 -223 0
-45 -41 223 0
47 46 146 0
47 -46 -146 0
-47 46 -146 0
-47 -46 146 0
48 46 180 0
48 -46 -180 0
-48 46 -180 0
-48 -46 180 0
49 46 229 0
49 -46 -229 0
-49 46 -229 0
-49 -46 229 0
51 50 87 0
51 -50 -87 0
-51 50 -87 0
-51 -50 87 0
52 50 162 0
52 -50 -162 0
-52 50 -162 0
-52 -50 162 0
53 50 180 0
53 -50 -180 0
-53 50 -180 0
-53 -50 180 0
54 50 205 0
54 -50 -205 0
-54 50 -205 0
-54 -50 205 0
56 55 103 0
56 -55 -103 0
-56 55 -103 0
-56 -55 103 0
57 55 129 0
57 -55 -129 0
-57 55 -129 0
-57 -55 129 0
59 58 114 0
59 -58 -114 0
-59 58 -114 0
-59 -58 114 0
60 58 207 0
60 -58 -207 0
-60 58 -207 0
-60 -58 207 0
63 62 68 0
63 -62 -68 0
-63 62 -68 0
-63 -62 68 0
64 62 162 0
64 -62 -162 0
-64 62 -162 0
-64 -62 162 0
65 62 189 0
65 -62 -189 0
-65 62 -189 0
-65 -62 189 0
66 62 195 0
66 -62 -195 0
-66 62 -195 0
-66 -62 195 0
67 62 214 0
67 -62 -214 0
-67 62 -214 0
-67 -62 214 0
69 68 139 0
69 -68 -139 0
-69 68 -139 0
-69 -68 139 0
70 68 147 0
70 -68 -147 0
-70 68 -147 0
-70 -68 147 0
71 68 162 0
71 -68 -162 0
-71 68 -162 0
-71 -68 162 0
72 68 205 0
72 -68 -205 0
-72 68 -205 0
-72 -68 205 0
74 73 220 0
74 -73 -220 0
-74 73 -220 0
-74 -73 220 0
76 75 109 0
76 -75 -109 0
-76 75 -109 0
-76 -75 109 0
77 75 162 0
77 -75 -162 0
-77 75 -162 0
-77 -75 162 0
78 75 197 0
78 -75 -197 0
-78 75 -197 0
-78 -75 197 0
79 75 227 0
79 -75 -227 0
-79 75 -227 0
-79 -75 227 0
81 80 223 0
81 -80 -223 0
-81 80 -223 0
-81 -80 223 0
83 82 131 0
83 -82 -131 0
-83 82 -131 0
-83 -82 131 0
85 84 181 0
85 -84 -181 0
-85 84 -181 0
-85 -84 181 0
86 84 226 0
86 -84 -226 0
-86 84 -226 0
-86 -84 226 0
88 87 158 0
88 -87 -158 0
-88 87 -158 0
-88 -87 158 0
89 87 207 0
89 -87 -207 0
-89 87 -207 0
-89 -87 207 0
91 90 120 0
91 -90 -120 0
-91 90 -120 0
-91 -90 120 0
92 90 139 0
92 -90 -139 0
-92 90 -139 0
-92 -90 139 0
93 90 165 0
93 -90 -165 0
-93 90 -165 0
-93 -90 165 0
94 90 225 0
94 -90 -225 0
-94 90 -225 0
-94 -90 225 0
96 95 213 0
96 -95 -213 0
-96 95 -213 0
-96 -95 213 0
97 95 215 0
97 -95 -215 0
-97 95 -215 0
-97 -95 215 0
99 98 129 0
99 -98 -129 0
-99 98 -129 0
-99 -98 129 0
100 98 144 0
100 -98 -144 0
-100 98 -144 0
-100 -98 144 0
101 98 180 0
101 -98 -180 0
-101 98 -180 0
-101 -98 180 0
102 98 202 0
102 -98 -202 0
-102 98 -202 0
-102 -98 202 0
105 104 183 0
105 -104 -183 0
-105 104 -183 0
-105 -104 183 0
107 106 146 0
107 -106 -146 0
-107 106 -146 0
-107 -106 146 0
110 109 170 0
110 -109 -170 0
-110 109 -170 0
-110 -109 170 0
111 109 205 0
111 -109 -205 0
-111 109 -205 0
-111 -109 205 0
112 109 209 0
112 -109 -209 0
-112 109 -209 0
-112 -109 209 0
113 109 229 0
113 -109 -229 0
-113 109 -229 0
-113 -109 229 0
115 114 127 0
115 -114 -127 0
-115 114 -127 0
-115 -114 127 0
116 114 187 0
116 -114 -187 0
-116 114 -187 0
-116 -114 187 0
117 114 193 0
117 -114 -193 0
-117 114 -193 0
-117 -114 193 0
118 114 203 0
118 -114 -203 0
-118 114 -203 0
-118 -114 203 0
119 114 227 0
119 -114 -227 0
-119 114 -227 0
-119 -114 227 0
121 120 190 0
121 -120 -190 0
-121 120 -190 0
-121 -120 190 0
122 120 193 0
122 -120 -193 0
-122 120 -193 0
-122 -120 193 0
123 120 201 0
123 -120 -201 0
-123 120 -201 0
-123 -120 201 0
125 124 172 0
125 -124 -172 0
-125 124 -172 0
-125 -124 172 0
126 124 193 0
126 -124 -193 0
-126 124 -193 0
-126 -124 193 0
128 127 195 0
128 -127 -195 0
-128 127 -195 0
-128 -127 195 0
130 129 153 0
130 -129 -153 0
-130 129 -153 0
-130 -129 153 0
132 131 156 0
132 -131 -156 0
-132 131 -156 0
-132 -131 156 0
133 131 181 0
133 -131 -181 0
-133 131 -181 0
-133 -131 181 0
134 131 211 0
134 -131 -211 0
-134 131 -211 0
-134 -131 211 0
136 135 172 0
136 -135 -172 0
-136 135 -172 0
-136 -135 172 0
137 135 205 0
137 -135 -205 0
-137 135 -205 0
-137 -135 205 0
138 135 215 0
138 -135 -215 0
-138 135 -215 0
-138 -135 215 0
140 139 172 0
140 -139 -172 0
-140 139 -172 0
-140 -139 172 0
141 139 189 0
141 -139 -189 0
-141 139 -189 0
-141 -139 189 0
142 139 202 0
142 -139 -202 0
-142 139 -202 0
-142 -139 202 0
143 139 229 0
143 -139 -229 0
-143 139 -229 0
-143 -139 229 0
145 144 170 0
145 -144 -170 0
-145 144 -170 0
-145 -144 170 0
148 147 161 0
148 -147 -161 0
-148 147 -161 0
-148 -147 161 0
149 147 165 0
149 -147 -165 0
-149 147 -165 0
-149 -147 165 0
150 147 170 0
150 -147 -170 0
-150 147 -170 0
-150 -147 170 0
151 147 180 0
151 -147 -180 0
-151 147 -180 0
-151 -147 180 0
152 147 217 0
152 -147 -217 0
-152 147 -217 0
-152 -147 217 0
154 153 199 0
154 -153 -199 0
-154 153 -199 0
-154 -153 199 0
155 153 224 0
155 -153 -224 0
-155 153 -224 0
-155 -153 224 0
157 156 222 0
157 -156 -222 0
-157 156 -222 0
-157 -156 222 0
159 158 187 0
159 -158 -187 0
-159 158 -187 0
-159 -158 187 0
160 158 214 0
160 -158 -214 0
-160 158 -214 0
-160 -158 214 0
163 162 205 0
163 -162 -205 0
-163 162 -205 0
-163 -162 205 0
164 162 207 0
164 -162 -207 0
-164 162 -207 0
-164 -162 207 0
166 165 195 0
166 -165 -195 0
-166 165 -195 0
-166 -165 195 0
168 167 181 0
168 -167 -181 0
-168 167 -181 0
-168 -167 181 0
169 167 205 0
169 -167 -205 0
-169 167 -205 0
-169 -167 205 0
173 172 177 0
173 -172 -177 0
-173 172 -177 0
-173 -172 177 0
174 172 187 0
174 -172 -187 0
-174 172 -187 0
-174 -172 187 0
175 172 190 0
175 -172 -190 0
-175 172 -190 0
-175 -172 190 0
176 172 218 0
176 -172 -218 0
-176 172 -218 0
-176 -172 218 0
178 177 207 0
178 -177 -207 0
-178 177 -207 0
-178 -177 207 0
179 177 211 0
179 -177 -211 0
-179 177 -211 0
-179 -177 211 0
182 181 221 0
182 -181 -221 0
-182 181 -221 0
-182 -181 221 0
184 183 201 0
184 -183 -201 0
-184 183 -201 0
-184 -183 201 0
186 185 202 0
186 -185 -202 0
-186 185 -202 0
-186 -185 202 0
192 191 195 0
192 -191 -195 0
-192 191 -195 0
-192 -191 195 0
194 193 222 0
194 -193 -222 0
-194 193 -222 0
-194 -193 222 0
196 195 205 0
196 -195 -205 0
-196 195 -205 0
-196 -195 205 0
198 197 224 0
198 -197 -224 0
-198 197 -224 0
-198 -197 224 0
200 199 211 0
200 -199 -211 0
-200 199 -211 0
-200 -199 211 0
204 203 207 0
204 -203 -207 0
-204 203 -207 0
-204 -203 207 0
206 205 219 0
206 -205 -219 0
-206 205 -219 0
-206 -205 219 0
208 207 228 0
208 -207 -228 0
-208 207 -228 0
-208 -207 228 0
210 209 222 0
210 -209 -222 0
-210 209 -222 0
-210 -209 222 0
212 211 214 0
212 -211 -214 0
-212 211 -214 0
-212 -211 214 0
216 215 228 0
216 -215 -228 0
-216 215 -228 0
-216 -215 228 0
